
Log started (V11.0.0) Sat May 17 19:57:43 2008

Tried aggregator 1 time.
Reduced MIP has 150 rows, 5001 columns, and 10050 nonzeros.
Presolve time =    0.03 sec.
Clique table members: 100.
MIP emphasis: balance optimality and feasibility.
MIP search method: dynamic search.
Parallel mode: none, using 1 thread.
Root relaxation solution time =    0.31 sec.

        Nodes                                         Cuts/
   Node  Left     Objective  IInf  Best Integer     Best Node    ItCnt     Gap

*     0+    0                       105011.0000     2004.5577      474   98.09%
*     0+    0                         2015.0000     2004.5577      474    0.52%
      0     0     2007.9746    66     2015.0000      Fract: 3      500    0.35%
      0     0     2007.9746    78     2015.0000       Cuts: 3      548    0.35%
      0     0     2007.9746    82     2015.0000       Cuts: 5      560    0.35%
*     0+    0                         2012.0000     2007.9746      560    0.20%
      0     2     2008.0000    77     2012.0000     2007.9746      560    0.20%
    100     9        cutoff           2012.0000     2009.0000     9275    0.15%
    200    23     2009.0000    28     2012.0000     2009.0000    21287    0.15%
    300    25        cutoff           2012.0000     2009.0000    36598    0.15%
    400    35        cutoff           2012.0000     2009.0000    51290    0.15%
    500    44        cutoff           2012.0000     2009.0000    71076    0.15%
*   531+   29                         2011.0000     2009.0328    79840    0.10%

Clique cuts applied:  6
Cover cuts applied:  5
Implied bound cuts applied:  3
Flow cuts applied:  1
Gomory fractional cuts applied:  5

Solution pool: 4 solutions saved.

MIP - Integer optimal solution:  Objective = 2.0110000000e+003
Solution time =   15.86 sec.  Iterations = 79840  Nodes = 531 (29)


Incumbent solution
Variable Name           Solution Value
Cmax                       2011.000000
X_1_6                         1.000000
X_2_26                        1.000000
X_3_14                        1.000000
X_4_39                        1.000000
X_5_41                        1.000000
X_6_40                        1.000000
X_7_2                         1.000000
X_8_37                        1.000000
X_9_48                        1.000000
X_10_12                       1.000000
X_11_20                       1.000000
X_12_45                       1.000000
X_13_3                        1.000000
X_14_45                       1.000000
X_15_16                       1.000000
X_16_43                       1.000000
X_17_17                       1.000000
X_18_27                       1.000000
X_19_12                       1.000000
X_20_29                       1.000000
X_21_1                        1.000000
X_22_32                       1.000000
X_23_13                       1.000000
X_24_43                       1.000000
X_25_42                       1.000000
X_26_18                       1.000000
X_27_44                       1.000000
X_28_48                       1.000000
X_29_22                       1.000000
X_30_17                       1.000000
X_31_47                       1.000000
X_32_2                        1.000000
X_33_46                       1.000000
X_34_44                       1.000000
X_35_8                        1.000000
X_36_7                        1.000000
X_37_14                       1.000000
X_38_19                       1.000000
X_39_25                       1.000000
X_40_36                       1.000000
X_41_5                        1.000000
X_42_3                        1.000000
X_43_40                       1.000000
X_44_10                       1.000000
X_45_21                       1.000000
X_46_33                       1.000000
X_47_29                       1.000000
X_48_42                       1.000000
X_49_18                       1.000000
X_50_16                       1.000000
X_51_5                        1.000000
X_52_9                        1.000000
X_53_39                       1.000000
X_54_41                       1.000000
X_55_9                        1.000000
X_56_46                       1.000000
X_57_28                       1.000000
X_58_34                       1.000000
X_59_38                       1.000000
X_60_49                       1.000000
X_61_33                       1.000000
X_62_47                       1.000000
X_63_13                       1.000000
X_64_28                       1.000000
X_65_23                       1.000000
X_66_24                       1.000000
X_67_11                       1.000000
X_68_11                       1.000000
X_69_38                       1.000000
X_70_24                       1.000000
X_71_31                       1.000000
X_72_35                       1.000000
X_73_15                       1.000000
X_74_26                       1.000000
X_75_21                       1.000000
X_76_8                        1.000000
X_77_4                        1.000000
X_78_30                       1.000000
X_79_50                       1.000000
X_80_31                       1.000000
X_81_37                       1.000000
X_82_1                        1.000000
X_83_50                       1.000000
X_84_35                       1.000000
X_85_27                       1.000000
X_86_4                        1.000000
X_87_20                       1.000000
X_88_22                       1.000000
X_89_36                       1.000000
X_90_7                        1.000000
X_91_49                       1.000000
X_92_34                       1.000000
X_93_19                       1.000000
X_94_6                        1.000000
X_95_23                       1.000000
X_96_32                       1.000000
X_97_10                       1.000000
X_98_15                       1.000000
X_99_25                       1.000000
X_100_30                      1.000000
All other variables in the range 1-5001 are 0.
